Maximize
  - 3.7655162573 edge_0_1_0_0 - 3.14000071008 edge_0_2_0_0
   - 2.9622436217412 edge_0_3_0_0 - 2.9333498893978 edge_0_4_0_0
   - 2.336976746562 edge_0_5_0_0 - 2.4176454523802 edge_0_6_0_0
   - 3.2199637460631 edge_0_7_0_0 - 3.295698220322 edge_0_9_0_0
   - 4.06998869805 edge_0_11_0_0 - 3.087329073801 edge_0_12_0_0
   - 2.9968669176928 edge_0_14_0_0 - 4.9349008704165 edge_0_15_0_0
   - 3.5238100442569 edge_0_18_0_0 - 0.6124895729045645 edge_1_2_0_0
   - 0.7402213676368681 edge_1_3_0_0 - 0.2228486508587492 edge_1_4_0_0
   - 0.1523025872524429 edge_1_5_0_0 - 0.1195347022713587 edge_1_6_0_0
   - 0.5935939034117834 edge_1_7_0_0 - 1.21547486572012 edge_1_9_0_0
   - 0.1549184812459015 edge_1_10_0_0 - 0.183902096556966 edge_1_11_0_0
   - 1.655178834393424 edge_1_12_0_0 + 1.20844434984 edge_1_19_0_0
   + 0.1273702689382191 edge_2_1_0_0 + 2.107378790651091 edge_2_3_0_0
   + 1.43935510667954 edge_2_4_0_0 - 0.220035448470308 edge_2_7_0_0
   + 0.8970973854541536 edge_2_9_0_0 + 1.011801157724205 edge_2_10_0_0
   + 1.106215531328647 edge_2_11_0_0 + 0.3464046426132468 edge_2_12_0_0
   + 0.4551469687605501 edge_2_15_0_0 + 0.3908465199276137 edge_2_18_0_0
   + 1.13918239056 edge_2_19_0_0 + 0.5047921655053518 edge_3_1_0_0
   + 0.9271154269449635 edge_3_2_0_0 + 1.395804006828964 edge_3_4_0_0
   + 2.123221268123301 edge_3_5_0_0 + 2.211690637091662 edge_3_6_0_0
   + 0.3046424296550033 edge_3_7_0_0 + 1.05035430381387 edge_3_9_0_0
   + 0.5650114716004725 edge_3_10_0_0 + 1.195156500099636 edge_3_11_0_0
   + 0.514723209052771 edge_3_12_0_0 + 0.0838582389410673 edge_3_14_0_0
   - 0.9631610445253812 edge_3_15_0_0 + 0.7594497637345998 edge_3_18_0_0
   + 1.877374006453289 edge_3_19_0_0 + 1.164353115998813 edge_4_1_0_0
   + 0.3295532837672435 edge_4_2_0_0 + 1.266718163972279 edge_4_3_0_0
   + 0.7184296570516745 edge_4_5_0_0 + 2.264075610302316 edge_4_6_0_0
   + 1.540037492975748 edge_4_7_0_0 + 0.9425069668811423 edge_4_8_0_0
   + 3.37300741886107 edge_4_9_0_0 + 1.850570500493181 edge_4_10_0_0
   + 1.137957067759221 edge_4_11_0_0 + 2.163222530967456 edge_4_12_0_0
   + 0.4029396412353787 edge_4_14_0_0 + 1.387474213194438 edge_4_15_0_0
   + 0.4259466221010316 edge_4_16_0_0 - 0.3955937577879118 edge_4_17_0_0
   + 0.8642661465039156 edge_4_18_0_0 + 1.252156332214216 edge_4_19_0_0
   - 0.2347601911995399 edge_5_1_0_0 + 0.9370431320847239 edge_5_3_0_0
   + 0.0998020125582824 edge_5_4_0_0 + 0.8944662826838923 edge_5_6_0_0
   - 0.2512006145841899 edge_5_7_0_0 + 0.1746464587850613 edge_5_9_0_0
   + 0.1274646043614669 edge_5_11_0_0 - 0.0207179642482489 edge_5_12_0_0
   + 0.0679769901990758 edge_5_14_0_0 - 0.2549042900553015 edge_5_18_0_0
   + 0.22651097034441 edge_5_19_0_0 + 0.2335360865978756 edge_6_1_0_0
   + 0.6134680547884409 edge_6_3_0_0 + 0.1468567494713775 edge_6_4_0_0
   + 2.990095493232362 edge_6_5_0_0 + 1.825302839923626 edge_6_7_0_0
   + 1.689860851108768 edge_6_8_0_0 + 1.25550352074249 edge_6_9_0_0
   + 0.2066117335651 edge_6_10_0_0 + 0.0630547595694408 edge_6_11_0_0
   + 2.474309829765291 edge_6_12_0_0 + 0.3237551469813299 edge_6_14_0_0
   + 0.786814669523469 edge_6_15_0_0 - 0.8695038850219657 edge_6_16_0_0
   - 0.035636693298079 edge_6_17_0_0 - 0.1168920728459071 edge_6_18_0_0
   + 0.1603567590925133 edge_6_19_0_0 - 0.8171042325522399 edge_7_1_0_0
   - 0.5642934895432445 edge_7_3_0_0 + 0.724537835855782 edge_7_4_0_0
   + 0.0678423538364483 edge_7_6_0_0 + 0.731358683795541 edge_7_8_0_0
   + 0.7217337792502507 edge_7_9_0_0 + 0.1695963635947547 edge_7_10_0_0
   + 0.2866521792606093 edge_7_11_0_0 - 0.3123723289960326 edge_7_12_0_0
   - 1.054115486099227 edge_7_14_0_0 - 1.049272386333294 edge_7_15_0_0
   - 1.430114186775198 edge_7_18_0_0 - 1.205192891398087 edge_7_19_0_0
   - 1.325853031521508 edge_8_1_0_0 - 0.4723208644539306 edge_8_6_0_0
   - 0.4093689263422511 edge_8_7_0_0 - 0.141959686267628 edge_9_1_0_0
   - 0.0994256382584614 edge_9_2_0_0 + 0.0591239158568068 edge_9_3_0_0
   + 1.064594798025899 edge_9_4_0_0 + 0.5852697281531903 edge_9_5_0_0
   + 0.9038640424116126 edge_9_6_0_0 + 3.396047132847804 edge_9_7_0_0
   + 3.679979227923374 edge_9_8_0_0 + 1.034978317698897 edge_9_10_0_0
   + 2.334214824372314 edge_9_11_0_0 + 1.268988934048606 edge_9_12_0_0
   + 0.9519225899014438 edge_9_14_0_0 - 0.6351117869342406 edge_9_15_0_0
   + 2.109077951489591 edge_9_18_0_0 + 1.2612199243268 edge_9_19_0_0
   - 0.292057787391661 edge_10_6_0_0 - 0.6957366733886186 edge_10_7_0_0
   - 1.062193555723183 edge_10_9_0_0 - 0.3727920319179892 edge_10_11_0_0
   - 0.5385577121777463 edge_10_12_0_0 - 0.0542330857766864 edge_10_14_0_0
   - 0.0241571829441436 edge_10_15_0_0 - 1.458983456332587 edge_11_1_0_0
   - 0.5086138815672994 edge_11_7_0_0 - 0.6975128536875556 edge_11_9_0_0
   - 0.2441020867876282 edge_11_10_0_0 + 0.2983762424342005 edge_11_12_0_0
   - 0.0195002125962399 edge_11_14_0_0 - 1.021441151502274 edge_11_15_0_0
   - 0.4949582758000384 edge_11_18_0_0 - 0.1310735855239256 edge_11_19_0_0
   - 0.6551907803455195 edge_12_1_0_0 - 0.6299363856557118 edge_12_2_0_0
   - 1.428196330863073 edge_12_3_0_0 - 0.5203127631434085 edge_12_4_0_0
   - 0.4902436371748973 edge_12_6_0_0 - 0.2857243349924403 edge_12_7_0_0
   - 0.5814942621768054 edge_12_9_0_0 + 1.474724551118854 edge_12_10_0_0
   - 0.3287747174988552 edge_12_11_0_0 + 0.96637651045496 edge_12_14_0_0
   + 2.698625216923613 edge_12_15_0_0 - 0.3774717991733071 edge_12_16_0_0
   + 0.2806210399865484 edge_12_17_0_0 + 1.942262918586612 edge_12_18_0_0
   + 1.277818452848 edge_12_19_0_0 - 0.5869509905385419 edge_14_1_0_0
   - 0.938752383643361 edge_14_2_0_0 - 0.0693823969833313 edge_14_3_0_0
   + 0.1908079164696906 edge_14_4_0_0 - 0.606940273140822 edge_14_5_0_0
   - 0.2438387871695799 edge_14_6_0_0 + 0.258644934915251 edge_14_7_0_0
   + 0.3159612894275316 edge_14_9_0_0 + 0.0676053813286744 edge_14_10_0_0
   - 0.0676258922053564 edge_14_11_0_0 + 1.070026734483083 edge_14_12_0_0
   + 0.2463450496924063 edge_14_14_0_0 + 0.2351896359810426 edge_14_15_0_0
   - 0.0747418104953897 edge_14_18_0_0 - 0.1310901309225711 edge_14_19_0_0
   - 0.0957944030932047 edge_15_1_0_0 - 0.5346580992166866 edge_15_2_0_0
   - 0.1808164545420002 edge_15_3_0_0 + 0.223077083536642 edge_15_4_0_0
   + 0.2352351158903809 edge_15_6_0_0 - 0.1800020876239908 edge_15_7_0_0
   - 0.3281427890707672 edge_15_8_0_0 - 0.0912111816483113 edge_15_9_0_0
   + 0.9029547638889207 edge_15_10_0_0 + 0.2194380898631427 edge_15_11_0_0
   + 1.116479051349049 edge_15_12_0_0 + 3.02751723163586 edge_15_14_0_0
   + 0.3891722176972627 edge_15_16_0_0 + 0.5840717096087579 edge_15_17_0_0
   + 3.06437377930962 edge_15_18_0_0 + 1.411557388614 edge_15_19_0_0
   - 0.5152714406164133 edge_17_16_0_0 - 0.11885984591264 edge_17_19_0_0
   - 0.4512418246976007 edge_18_1_0_0 - 1.232324518741547 edge_18_2_0_0
   - 0.0745489198286845 edge_18_3_0_0 - 0.00715502528310117 edge_18_4_0_0
   + 0.6131382298952036 edge_18_5_0_0 + 0.5044639042498299 edge_18_6_0_0
   + 1.720352530950706 edge_18_7_0_0 + 0.9024791254857291 edge_18_9_0_0
   + 0.3571297157048817 edge_18_10_0_0 + 0.1869696918325145 edge_18_11_0_0
   + 2.044681634018326 edge_18_12_0_0 + 3.449122627046275 edge_18_14_0_0
   + 0.4455470955377083 edge_18_15_0_0 + 3.076014167010205 edge_18_16_0_0
   + 3.615529775451052 edge_18_17_0_0 + 1.333796769270456 edge_18_19_0_0
   - 1.490334702186026 edge_19_18_0_0 + 0 pos_1_0 + 0 pos_2_0 + 0 pos_3_0
   + 0 pos_4_0 + 0 pos_5_0 + 0 pos_6_0 + 0 pos_7_0 + 0 pos_8_0 + 0 pos_9_0
   + 0 pos_10_0 + 0 pos_11_0 + 0 pos_12_0 + 0 pos_14_0 + 0 pos_15_0
   + 0 pos_16_0 + 0 pos_17_0 + 0 pos_18_0 + 0 pos_19_0
Subject To
 one_parent_1: edge_0_1_0_0 + edge_2_1_0_0 + edge_3_1_0_0 + edge_4_1_0_0
   + edge_5_1_0_0 + edge_6_1_0_0 + edge_7_1_0_0 + edge_8_1_0_0
   + edge_9_1_0_0 + edge_11_1_0_0 + edge_12_1_0_0 + edge_14_1_0_0
   + edge_15_1_0_0 + edge_18_1_0_0 = 1
 consume_one_flow_unit_1: flow_0_1_0_0 - flow_1_2_0_0 - flow_1_3_0_0
   - flow_1_4_0_0 - flow_1_5_0_0 - flow_1_6_0_0 - flow_1_7_0_0
   - flow_1_9_0_0 - flow_1_10_0_0 - flow_1_11_0_0 - flow_1_12_0_0
   - flow_1_19_0_0 + flow_2_1_0_0 + flow_3_1_0_0 + flow_4_1_0_0
   + flow_5_1_0_0 + flow_6_1_0_0 + flow_7_1_0_0 + flow_8_1_0_0
   + flow_9_1_0_0 + flow_11_1_0_0 + flow_12_1_0_0 + flow_14_1_0_0
   + flow_15_1_0_0 + flow_18_1_0_0 = 1
 one_parent_2: edge_0_2_0_0 + edge_1_2_0_0 + edge_3_2_0_0 + edge_4_2_0_0
   + edge_9_2_0_0 + edge_12_2_0_0 + edge_14_2_0_0 + edge_15_2_0_0
   + edge_18_2_0_0 = 1
 consume_one_flow_unit_2: flow_0_2_0_0 + flow_1_2_0_0 - flow_2_1_0_0
   - flow_2_3_0_0 - flow_2_4_0_0 - flow_2_7_0_0 - flow_2_9_0_0
   - flow_2_10_0_0 - flow_2_11_0_0 - flow_2_12_0_0 - flow_2_15_0_0
   - flow_2_18_0_0 - flow_2_19_0_0 + flow_3_2_0_0 + flow_4_2_0_0
   + flow_9_2_0_0 + flow_12_2_0_0 + flow_14_2_0_0 + flow_15_2_0_0
   + flow_18_2_0_0 = 1
 one_parent_3: edge_0_3_0_0 + edge_1_3_0_0 + edge_2_3_0_0 + edge_4_3_0_0
   + edge_5_3_0_0 + edge_6_3_0_0 + edge_7_3_0_0 + edge_9_3_0_0
   + edge_12_3_0_0 + edge_14_3_0_0 + edge_15_3_0_0 + edge_18_3_0_0 = 1
 consume_one_flow_unit_3: flow_0_3_0_0 + flow_1_3_0_0 + flow_2_3_0_0
   - flow_3_1_0_0 - flow_3_2_0_0 - flow_3_4_0_0 - flow_3_5_0_0
   - flow_3_6_0_0 - flow_3_7_0_0 - flow_3_9_0_0 - flow_3_10_0_0
   - flow_3_11_0_0 - flow_3_12_0_0 - flow_3_14_0_0 - flow_3_15_0_0
   - flow_3_18_0_0 - flow_3_19_0_0 + flow_4_3_0_0 + flow_5_3_0_0
   + flow_6_3_0_0 + flow_7_3_0_0 + flow_9_3_0_0 + flow_12_3_0_0
   + flow_14_3_0_0 + flow_15_3_0_0 + flow_18_3_0_0 = 1
 one_parent_4: edge_0_4_0_0 + edge_1_4_0_0 + edge_2_4_0_0 + edge_3_4_0_0
   + edge_5_4_0_0 + edge_6_4_0_0 + edge_7_4_0_0 + edge_9_4_0_0
   + edge_12_4_0_0 + edge_14_4_0_0 + edge_15_4_0_0 + edge_18_4_0_0 = 1
 consume_one_flow_unit_4: flow_0_4_0_0 + flow_1_4_0_0 + flow_2_4_0_0
   + flow_3_4_0_0 - flow_4_1_0_0 - flow_4_2_0_0 - flow_4_3_0_0
   - flow_4_5_0_0 - flow_4_6_0_0 - flow_4_7_0_0 - flow_4_8_0_0
   - flow_4_9_0_0 - flow_4_10_0_0 - flow_4_11_0_0 - flow_4_12_0_0
   - flow_4_14_0_0 - flow_4_15_0_0 - flow_4_16_0_0 - flow_4_17_0_0
   - flow_4_18_0_0 - flow_4_19_0_0 + flow_5_4_0_0 + flow_6_4_0_0
   + flow_7_4_0_0 + flow_9_4_0_0 + flow_12_4_0_0 + flow_14_4_0_0
   + flow_15_4_0_0 + flow_18_4_0_0 = 1
 one_parent_5: edge_0_5_0_0 + edge_1_5_0_0 + edge_3_5_0_0 + edge_4_5_0_0
   + edge_6_5_0_0 + edge_9_5_0_0 + edge_14_5_0_0 + edge_18_5_0_0 = 1
 consume_one_flow_unit_5: flow_0_5_0_0 + flow_1_5_0_0 + flow_3_5_0_0
   + flow_4_5_0_0 - flow_5_1_0_0 - flow_5_3_0_0 - flow_5_4_0_0
   - flow_5_6_0_0 - flow_5_7_0_0 - flow_5_9_0_0 - flow_5_11_0_0
   - flow_5_12_0_0 - flow_5_14_0_0 - flow_5_18_0_0 - flow_5_19_0_0
   + flow_6_5_0_0 + flow_9_5_0_0 + flow_14_5_0_0 + flow_18_5_0_0 = 1
 one_parent_6: edge_0_6_0_0 + edge_1_6_0_0 + edge_3_6_0_0 + edge_4_6_0_0
   + edge_5_6_0_0 + edge_7_6_0_0 + edge_8_6_0_0 + edge_9_6_0_0
   + edge_10_6_0_0 + edge_12_6_0_0 + edge_14_6_0_0 + edge_15_6_0_0
   + edge_18_6_0_0 = 1
 consume_one_flow_unit_6: flow_0_6_0_0 + flow_1_6_0_0 + flow_3_6_0_0
   + flow_4_6_0_0 + flow_5_6_0_0 - flow_6_1_0_0 - flow_6_3_0_0
   - flow_6_4_0_0 - flow_6_5_0_0 - flow_6_7_0_0 - flow_6_8_0_0
   - flow_6_9_0_0 - flow_6_10_0_0 - flow_6_11_0_0 - flow_6_12_0_0
   - flow_6_14_0_0 - flow_6_15_0_0 - flow_6_16_0_0 - flow_6_17_0_0
   - flow_6_18_0_0 - flow_6_19_0_0 + flow_7_6_0_0 + flow_8_6_0_0
   + flow_9_6_0_0 + flow_10_6_0_0 + flow_12_6_0_0 + flow_14_6_0_0
   + flow_15_6_0_0 + flow_18_6_0_0 = 1
 one_parent_7: edge_0_7_0_0 + edge_1_7_0_0 + edge_2_7_0_0 + edge_3_7_0_0
   + edge_4_7_0_0 + edge_5_7_0_0 + edge_6_7_0_0 + edge_8_7_0_0
   + edge_9_7_0_0 + edge_10_7_0_0 + edge_11_7_0_0 + edge_12_7_0_0
   + edge_14_7_0_0 + edge_15_7_0_0 + edge_18_7_0_0 = 1
 consume_one_flow_unit_7: flow_0_7_0_0 + flow_1_7_0_0 + flow_2_7_0_0
   + flow_3_7_0_0 + flow_4_7_0_0 + flow_5_7_0_0 + flow_6_7_0_0
   - flow_7_1_0_0 - flow_7_3_0_0 - flow_7_4_0_0 - flow_7_6_0_0
   - flow_7_8_0_0 - flow_7_9_0_0 - flow_7_10_0_0 - flow_7_11_0_0
   - flow_7_12_0_0 - flow_7_14_0_0 - flow_7_15_0_0 - flow_7_18_0_0
   - flow_7_19_0_0 + flow_8_7_0_0 + flow_9_7_0_0 + flow_10_7_0_0
   + flow_11_7_0_0 + flow_12_7_0_0 + flow_14_7_0_0 + flow_15_7_0_0
   + flow_18_7_0_0 = 1
 one_parent_8: edge_4_8_0_0 + edge_6_8_0_0 + edge_7_8_0_0 + edge_9_8_0_0
   + edge_15_8_0_0 = 1
 consume_one_flow_unit_8: flow_4_8_0_0 + flow_6_8_0_0 + flow_7_8_0_0
   - flow_8_1_0_0 - flow_8_6_0_0 - flow_8_7_0_0 + flow_9_8_0_0
   + flow_15_8_0_0 = 1
 one_parent_9: edge_0_9_0_0 + edge_1_9_0_0 + edge_2_9_0_0 + edge_3_9_0_0
   + edge_4_9_0_0 + edge_5_9_0_0 + edge_6_9_0_0 + edge_7_9_0_0
   + edge_10_9_0_0 + edge_11_9_0_0 + edge_12_9_0_0 + edge_14_9_0_0
   + edge_15_9_0_0 + edge_18_9_0_0 = 1
 consume_one_flow_unit_9: flow_0_9_0_0 + flow_1_9_0_0 + flow_2_9_0_0
   + flow_3_9_0_0 + flow_4_9_0_0 + flow_5_9_0_0 + flow_6_9_0_0
   + flow_7_9_0_0 - flow_9_1_0_0 - flow_9_2_0_0 - flow_9_3_0_0
   - flow_9_4_0_0 - flow_9_5_0_0 - flow_9_6_0_0 - flow_9_7_0_0
   - flow_9_8_0_0 - flow_9_10_0_0 - flow_9_11_0_0 - flow_9_12_0_0
   - flow_9_14_0_0 - flow_9_15_0_0 - flow_9_18_0_0 - flow_9_19_0_0
   + flow_10_9_0_0 + flow_11_9_0_0 + flow_12_9_0_0 + flow_14_9_0_0
   + flow_15_9_0_0 + flow_18_9_0_0 = 1
 one_parent_10: edge_1_10_0_0 + edge_2_10_0_0 + edge_3_10_0_0
   + edge_4_10_0_0 + edge_6_10_0_0 + edge_7_10_0_0 + edge_9_10_0_0
   + edge_11_10_0_0 + edge_12_10_0_0 + edge_14_10_0_0 + edge_15_10_0_0
   + edge_18_10_0_0 = 1
 consume_one_flow_unit_10: flow_1_10_0_0 + flow_2_10_0_0 + flow_3_10_0_0
   + flow_4_10_0_0 + flow_6_10_0_0 + flow_7_10_0_0 + flow_9_10_0_0
   - flow_10_6_0_0 - flow_10_7_0_0 - flow_10_9_0_0 - flow_10_11_0_0
   - flow_10_12_0_0 - flow_10_14_0_0 - flow_10_15_0_0 + flow_11_10_0_0
   + flow_12_10_0_0 + flow_14_10_0_0 + flow_15_10_0_0 + flow_18_10_0_0 = 1
 one_parent_11: edge_0_11_0_0 + edge_1_11_0_0 + edge_2_11_0_0
   + edge_3_11_0_0 + edge_4_11_0_0 + edge_5_11_0_0 + edge_6_11_0_0
   + edge_7_11_0_0 + edge_9_11_0_0 + edge_10_11_0_0 + edge_12_11_0_0
   + edge_14_11_0_0 + edge_15_11_0_0 + edge_18_11_0_0 = 1
 consume_one_flow_unit_11: flow_0_11_0_0 + flow_1_11_0_0 + flow_2_11_0_0
   + flow_3_11_0_0 + flow_4_11_0_0 + flow_5_11_0_0 + flow_6_11_0_0
   + flow_7_11_0_0 + flow_9_11_0_0 + flow_10_11_0_0 - flow_11_1_0_0
   - flow_11_7_0_0 - flow_11_9_0_0 - flow_11_10_0_0 - flow_11_12_0_0
   - flow_11_14_0_0 - flow_11_15_0_0 - flow_11_18_0_0 - flow_11_19_0_0
   + flow_12_11_0_0 + flow_14_11_0_0 + flow_15_11_0_0 + flow_18_11_0_0 = 1
 one_parent_12: edge_0_12_0_0 + edge_1_12_0_0 + edge_2_12_0_0
   + edge_3_12_0_0 + edge_4_12_0_0 + edge_5_12_0_0 + edge_6_12_0_0
   + edge_7_12_0_0 + edge_9_12_0_0 + edge_10_12_0_0 + edge_11_12_0_0
   + edge_14_12_0_0 + edge_15_12_0_0 + edge_18_12_0_0 = 1
 consume_one_flow_unit_12: flow_0_12_0_0 + flow_1_12_0_0 + flow_2_12_0_0
   + flow_3_12_0_0 + flow_4_12_0_0 + flow_5_12_0_0 + flow_6_12_0_0
   + flow_7_12_0_0 + flow_9_12_0_0 + flow_10_12_0_0 + flow_11_12_0_0
   - flow_12_1_0_0 - flow_12_2_0_0 - flow_12_3_0_0 - flow_12_4_0_0
   - flow_12_6_0_0 - flow_12_7_0_0 - flow_12_9_0_0 - flow_12_10_0_0
   - flow_12_11_0_0 - flow_12_14_0_0 - flow_12_15_0_0 - flow_12_16_0_0
   - flow_12_17_0_0 - flow_12_18_0_0 - flow_12_19_0_0 + flow_14_12_0_0
   + flow_15_12_0_0 + flow_18_12_0_0 = 1
 one_parent_13: = 1
 consume_one_flow_unit_13: = 1
 one_parent_14: edge_0_14_0_0 + edge_3_14_0_0 + edge_4_14_0_0
   + edge_5_14_0_0 + edge_6_14_0_0 + edge_7_14_0_0 + edge_9_14_0_0
   + edge_10_14_0_0 + edge_11_14_0_0 + edge_12_14_0_0 + edge_14_14_0_0
   + edge_15_14_0_0 + edge_18_14_0_0 = 1
 consume_one_flow_unit_14: flow_0_14_0_0 + flow_3_14_0_0 + flow_4_14_0_0
   + flow_5_14_0_0 + flow_6_14_0_0 + flow_7_14_0_0 + flow_9_14_0_0
   + flow_10_14_0_0 + flow_11_14_0_0 + flow_12_14_0_0 - flow_14_1_0_0
   - flow_14_2_0_0 - flow_14_3_0_0 - flow_14_4_0_0 - flow_14_5_0_0
   - flow_14_6_0_0 - flow_14_7_0_0 - flow_14_9_0_0 - flow_14_10_0_0
   - flow_14_11_0_0 - flow_14_12_0_0 - flow_14_15_0_0 - flow_14_18_0_0
   - flow_14_19_0_0 + flow_15_14_0_0 + flow_18_14_0_0 = 1
 one_parent_15: edge_0_15_0_0 + edge_2_15_0_0 + edge_3_15_0_0
   + edge_4_15_0_0 + edge_6_15_0_0 + edge_7_15_0_0 + edge_9_15_0_0
   + edge_10_15_0_0 + edge_11_15_0_0 + edge_12_15_0_0 + edge_14_15_0_0
   + edge_18_15_0_0 = 1
 consume_one_flow_unit_15: flow_0_15_0_0 + flow_2_15_0_0 + flow_3_15_0_0
   + flow_4_15_0_0 + flow_6_15_0_0 + flow_7_15_0_0 + flow_9_15_0_0
   + flow_10_15_0_0 + flow_11_15_0_0 + flow_12_15_0_0 + flow_14_15_0_0
   - flow_15_1_0_0 - flow_15_2_0_0 - flow_15_3_0_0 - flow_15_4_0_0
   - flow_15_6_0_0 - flow_15_7_0_0 - flow_15_8_0_0 - flow_15_9_0_0
   - flow_15_10_0_0 - flow_15_11_0_0 - flow_15_12_0_0 - flow_15_14_0_0
   - flow_15_16_0_0 - flow_15_17_0_0 - flow_15_18_0_0 - flow_15_19_0_0
   + flow_18_15_0_0 = 1
 one_parent_16: edge_4_16_0_0 + edge_6_16_0_0 + edge_12_16_0_0
   + edge_15_16_0_0 + edge_17_16_0_0 + edge_18_16_0_0 = 1
 consume_one_flow_unit_16: flow_4_16_0_0 + flow_6_16_0_0 + flow_12_16_0_0
   + flow_15_16_0_0 + flow_17_16_0_0 + flow_18_16_0_0 = 1
 one_parent_17: edge_4_17_0_0 + edge_6_17_0_0 + edge_12_17_0_0
   + edge_15_17_0_0 + edge_18_17_0_0 = 1
 consume_one_flow_unit_17: flow_4_17_0_0 + flow_6_17_0_0 + flow_12_17_0_0
   + flow_15_17_0_0 - flow_17_16_0_0 - flow_17_19_0_0 + flow_18_17_0_0 = 1
 one_parent_18: edge_0_18_0_0 + edge_2_18_0_0 + edge_3_18_0_0
   + edge_4_18_0_0 + edge_5_18_0_0 + edge_6_18_0_0 + edge_7_18_0_0
   + edge_9_18_0_0 + edge_11_18_0_0 + edge_12_18_0_0 + edge_14_18_0_0
   + edge_15_18_0_0 + edge_19_18_0_0 = 1
 consume_one_flow_unit_18: flow_0_18_0_0 + flow_2_18_0_0 + flow_3_18_0_0
   + flow_4_18_0_0 + flow_5_18_0_0 + flow_6_18_0_0 + flow_7_18_0_0
   + flow_9_18_0_0 + flow_11_18_0_0 + flow_12_18_0_0 + flow_14_18_0_0
   + flow_15_18_0_0 - flow_18_1_0_0 - flow_18_2_0_0 - flow_18_3_0_0
   - flow_18_4_0_0 - flow_18_5_0_0 - flow_18_6_0_0 - flow_18_7_0_0
   - flow_18_9_0_0 - flow_18_10_0_0 - flow_18_11_0_0 - flow_18_12_0_0
   - flow_18_14_0_0 - flow_18_15_0_0 - flow_18_16_0_0 - flow_18_17_0_0
   - flow_18_19_0_0 + flow_19_18_0_0 = 1
 one_parent_19: edge_1_19_0_0 + edge_2_19_0_0 + edge_3_19_0_0
   + edge_4_19_0_0 + edge_5_19_0_0 + edge_6_19_0_0 + edge_7_19_0_0
   + edge_9_19_0_0 + edge_11_19_0_0 + edge_12_19_0_0 + edge_14_19_0_0
   + edge_15_19_0_0 + edge_17_19_0_0 + edge_18_19_0_0 = 1
 consume_one_flow_unit_19: flow_1_19_0_0 + flow_2_19_0_0 + flow_3_19_0_0
   + flow_4_19_0_0 + flow_5_19_0_0 + flow_6_19_0_0 + flow_7_19_0_0
   + flow_9_19_0_0 + flow_11_19_0_0 + flow_12_19_0_0 + flow_14_19_0_0
   + flow_15_19_0_0 + flow_17_19_0_0 + flow_18_19_0_0 - flow_19_18_0_0 = 1
 root_flow: flow_0_1_0_0 + flow_0_2_0_0 + flow_0_3_0_0 + flow_0_4_0_0
   + flow_0_5_0_0 + flow_0_6_0_0 + flow_0_7_0_0 + flow_0_9_0_0
   + flow_0_11_0_0 + flow_0_12_0_0 + flow_0_14_0_0 + flow_0_15_0_0
   + flow_0_18_0_0 = 19
 inactive_no_flow_0_1_0_0: flow_0_1_0_0 - 1000 edge_0_1_0_0 <= 0
 inactive_no_flow_0_2_0_0: flow_0_2_0_0 - 1000 edge_0_2_0_0 <= 0
 inactive_no_flow_0_3_0_0: flow_0_3_0_0 - 1000 edge_0_3_0_0 <= 0
 inactive_no_flow_0_4_0_0: flow_0_4_0_0 - 1000 edge_0_4_0_0 <= 0
 inactive_no_flow_0_5_0_0: flow_0_5_0_0 - 1000 edge_0_5_0_0 <= 0
 inactive_no_flow_0_6_0_0: flow_0_6_0_0 - 1000 edge_0_6_0_0 <= 0
 inactive_no_flow_0_7_0_0: flow_0_7_0_0 - 1000 edge_0_7_0_0 <= 0
 inactive_no_flow_0_9_0_0: flow_0_9_0_0 - 1000 edge_0_9_0_0 <= 0
 inactive_no_flow_0_11_0_0: flow_0_11_0_0 - 1000 edge_0_11_0_0 <= 0
 inactive_no_flow_0_12_0_0: flow_0_12_0_0 - 1000 edge_0_12_0_0 <= 0
 inactive_no_flow_0_14_0_0: flow_0_14_0_0 - 1000 edge_0_14_0_0 <= 0
 inactive_no_flow_0_15_0_0: flow_0_15_0_0 - 1000 edge_0_15_0_0 <= 0
 inactive_no_flow_0_18_0_0: flow_0_18_0_0 - 1000 edge_0_18_0_0 <= 0
 inactive_no_flow_1_2_0_0: flow_1_2_0_0 - 1000 edge_1_2_0_0 <= 0
 inactive_no_flow_1_3_0_0: flow_1_3_0_0 - 1000 edge_1_3_0_0 <= 0
 inactive_no_flow_1_4_0_0: flow_1_4_0_0 - 1000 edge_1_4_0_0 <= 0
 inactive_no_flow_1_5_0_0: flow_1_5_0_0 - 1000 edge_1_5_0_0 <= 0
 inactive_no_flow_1_6_0_0: flow_1_6_0_0 - 1000 edge_1_6_0_0 <= 0
 inactive_no_flow_1_7_0_0: flow_1_7_0_0 - 1000 edge_1_7_0_0 <= 0
 inactive_no_flow_1_9_0_0: flow_1_9_0_0 - 1000 edge_1_9_0_0 <= 0
 inactive_no_flow_1_10_0_0: flow_1_10_0_0 - 1000 edge_1_10_0_0 <= 0
 inactive_no_flow_1_11_0_0: flow_1_11_0_0 - 1000 edge_1_11_0_0 <= 0
 inactive_no_flow_1_12_0_0: flow_1_12_0_0 - 1000 edge_1_12_0_0 <= 0
 inactive_no_flow_1_19_0_0: flow_1_19_0_0 - 1000 edge_1_19_0_0 <= 0
 inactive_no_flow_2_1_0_0: flow_2_1_0_0 - 1000 edge_2_1_0_0 <= 0
 inactive_no_flow_2_3_0_0: flow_2_3_0_0 - 1000 edge_2_3_0_0 <= 0
 inactive_no_flow_2_4_0_0: flow_2_4_0_0 - 1000 edge_2_4_0_0 <= 0
 inactive_no_flow_2_7_0_0: flow_2_7_0_0 - 1000 edge_2_7_0_0 <= 0
 inactive_no_flow_2_9_0_0: flow_2_9_0_0 - 1000 edge_2_9_0_0 <= 0
 inactive_no_flow_2_10_0_0: flow_2_10_0_0 - 1000 edge_2_10_0_0 <= 0
 inactive_no_flow_2_11_0_0: flow_2_11_0_0 - 1000 edge_2_11_0_0 <= 0
 inactive_no_flow_2_12_0_0: flow_2_12_0_0 - 1000 edge_2_12_0_0 <= 0
 inactive_no_flow_2_15_0_0: flow_2_15_0_0 - 1000 edge_2_15_0_0 <= 0
 inactive_no_flow_2_18_0_0: flow_2_18_0_0 - 1000 edge_2_18_0_0 <= 0
 inactive_no_flow_2_19_0_0: flow_2_19_0_0 - 1000 edge_2_19_0_0 <= 0
 inactive_no_flow_3_1_0_0: flow_3_1_0_0 - 1000 edge_3_1_0_0 <= 0
 inactive_no_flow_3_2_0_0: flow_3_2_0_0 - 1000 edge_3_2_0_0 <= 0
 inactive_no_flow_3_4_0_0: flow_3_4_0_0 - 1000 edge_3_4_0_0 <= 0
 inactive_no_flow_3_5_0_0: flow_3_5_0_0 - 1000 edge_3_5_0_0 <= 0
 inactive_no_flow_3_6_0_0: flow_3_6_0_0 - 1000 edge_3_6_0_0 <= 0
 inactive_no_flow_3_7_0_0: flow_3_7_0_0 - 1000 edge_3_7_0_0 <= 0
 inactive_no_flow_3_9_0_0: flow_3_9_0_0 - 1000 edge_3_9_0_0 <= 0
 inactive_no_flow_3_10_0_0: flow_3_10_0_0 - 1000 edge_3_10_0_0 <= 0
 inactive_no_flow_3_11_0_0: flow_3_11_0_0 - 1000 edge_3_11_0_0 <= 0
 inactive_no_flow_3_12_0_0: flow_3_12_0_0 - 1000 edge_3_12_0_0 <= 0
 inactive_no_flow_3_14_0_0: flow_3_14_0_0 - 1000 edge_3_14_0_0 <= 0
 inactive_no_flow_3_15_0_0: flow_3_15_0_0 - 1000 edge_3_15_0_0 <= 0
 inactive_no_flow_3_18_0_0: flow_3_18_0_0 - 1000 edge_3_18_0_0 <= 0
 inactive_no_flow_3_19_0_0: flow_3_19_0_0 - 1000 edge_3_19_0_0 <= 0
 inactive_no_flow_4_1_0_0: flow_4_1_0_0 - 1000 edge_4_1_0_0 <= 0
 inactive_no_flow_4_2_0_0: flow_4_2_0_0 - 1000 edge_4_2_0_0 <= 0
 inactive_no_flow_4_3_0_0: flow_4_3_0_0 - 1000 edge_4_3_0_0 <= 0
 inactive_no_flow_4_5_0_0: flow_4_5_0_0 - 1000 edge_4_5_0_0 <= 0
 inactive_no_flow_4_6_0_0: flow_4_6_0_0 - 1000 edge_4_6_0_0 <= 0
 inactive_no_flow_4_7_0_0: flow_4_7_0_0 - 1000 edge_4_7_0_0 <= 0
 inactive_no_flow_4_8_0_0: flow_4_8_0_0 - 1000 edge_4_8_0_0 <= 0
 inactive_no_flow_4_9_0_0: flow_4_9_0_0 - 1000 edge_4_9_0_0 <= 0
 inactive_no_flow_4_10_0_0: flow_4_10_0_0 - 1000 edge_4_10_0_0 <= 0
 inactive_no_flow_4_11_0_0: flow_4_11_0_0 - 1000 edge_4_11_0_0 <= 0
 inactive_no_flow_4_12_0_0: flow_4_12_0_0 - 1000 edge_4_12_0_0 <= 0
 inactive_no_flow_4_14_0_0: flow_4_14_0_0 - 1000 edge_4_14_0_0 <= 0
 inactive_no_flow_4_15_0_0: flow_4_15_0_0 - 1000 edge_4_15_0_0 <= 0
 inactive_no_flow_4_16_0_0: flow_4_16_0_0 - 1000 edge_4_16_0_0 <= 0
 inactive_no_flow_4_17_0_0: flow_4_17_0_0 - 1000 edge_4_17_0_0 <= 0
 inactive_no_flow_4_18_0_0: flow_4_18_0_0 - 1000 edge_4_18_0_0 <= 0
 inactive_no_flow_4_19_0_0: flow_4_19_0_0 - 1000 edge_4_19_0_0 <= 0
 inactive_no_flow_5_1_0_0: flow_5_1_0_0 - 1000 edge_5_1_0_0 <= 0
 inactive_no_flow_5_3_0_0: flow_5_3_0_0 - 1000 edge_5_3_0_0 <= 0
 inactive_no_flow_5_4_0_0: flow_5_4_0_0 - 1000 edge_5_4_0_0 <= 0
 inactive_no_flow_5_6_0_0: flow_5_6_0_0 - 1000 edge_5_6_0_0 <= 0
 inactive_no_flow_5_7_0_0: flow_5_7_0_0 - 1000 edge_5_7_0_0 <= 0
 inactive_no_flow_5_9_0_0: flow_5_9_0_0 - 1000 edge_5_9_0_0 <= 0
 inactive_no_flow_5_11_0_0: flow_5_11_0_0 - 1000 edge_5_11_0_0 <= 0
 inactive_no_flow_5_12_0_0: flow_5_12_0_0 - 1000 edge_5_12_0_0 <= 0
 inactive_no_flow_5_14_0_0: flow_5_14_0_0 - 1000 edge_5_14_0_0 <= 0
 inactive_no_flow_5_18_0_0: flow_5_18_0_0 - 1000 edge_5_18_0_0 <= 0
 inactive_no_flow_5_19_0_0: flow_5_19_0_0 - 1000 edge_5_19_0_0 <= 0
 inactive_no_flow_6_1_0_0: flow_6_1_0_0 - 1000 edge_6_1_0_0 <= 0
 inactive_no_flow_6_3_0_0: flow_6_3_0_0 - 1000 edge_6_3_0_0 <= 0
 inactive_no_flow_6_4_0_0: flow_6_4_0_0 - 1000 edge_6_4_0_0 <= 0
 inactive_no_flow_6_5_0_0: flow_6_5_0_0 - 1000 edge_6_5_0_0 <= 0
 inactive_no_flow_6_7_0_0: flow_6_7_0_0 - 1000 edge_6_7_0_0 <= 0
 inactive_no_flow_6_8_0_0: flow_6_8_0_0 - 1000 edge_6_8_0_0 <= 0
 inactive_no_flow_6_9_0_0: flow_6_9_0_0 - 1000 edge_6_9_0_0 <= 0
 inactive_no_flow_6_10_0_0: flow_6_10_0_0 - 1000 edge_6_10_0_0 <= 0
 inactive_no_flow_6_11_0_0: flow_6_11_0_0 - 1000 edge_6_11_0_0 <= 0
 inactive_no_flow_6_12_0_0: flow_6_12_0_0 - 1000 edge_6_12_0_0 <= 0
 inactive_no_flow_6_14_0_0: flow_6_14_0_0 - 1000 edge_6_14_0_0 <= 0
 inactive_no_flow_6_15_0_0: flow_6_15_0_0 - 1000 edge_6_15_0_0 <= 0
 inactive_no_flow_6_16_0_0: flow_6_16_0_0 - 1000 edge_6_16_0_0 <= 0
 inactive_no_flow_6_17_0_0: flow_6_17_0_0 - 1000 edge_6_17_0_0 <= 0
 inactive_no_flow_6_18_0_0: flow_6_18_0_0 - 1000 edge_6_18_0_0 <= 0
 inactive_no_flow_6_19_0_0: flow_6_19_0_0 - 1000 edge_6_19_0_0 <= 0
 inactive_no_flow_7_1_0_0: flow_7_1_0_0 - 1000 edge_7_1_0_0 <= 0
 inactive_no_flow_7_3_0_0: flow_7_3_0_0 - 1000 edge_7_3_0_0 <= 0
 inactive_no_flow_7_4_0_0: flow_7_4_0_0 - 1000 edge_7_4_0_0 <= 0
 inactive_no_flow_7_6_0_0: flow_7_6_0_0 - 1000 edge_7_6_0_0 <= 0
 inactive_no_flow_7_8_0_0: flow_7_8_0_0 - 1000 edge_7_8_0_0 <= 0
 inactive_no_flow_7_9_0_0: flow_7_9_0_0 - 1000 edge_7_9_0_0 <= 0
 inactive_no_flow_7_10_0_0: flow_7_10_0_0 - 1000 edge_7_10_0_0 <= 0
 inactive_no_flow_7_11_0_0: flow_7_11_0_0 - 1000 edge_7_11_0_0 <= 0
 inactive_no_flow_7_12_0_0: flow_7_12_0_0 - 1000 edge_7_12_0_0 <= 0
 inactive_no_flow_7_14_0_0: flow_7_14_0_0 - 1000 edge_7_14_0_0 <= 0
 inactive_no_flow_7_15_0_0: flow_7_15_0_0 - 1000 edge_7_15_0_0 <= 0
 inactive_no_flow_7_18_0_0: flow_7_18_0_0 - 1000 edge_7_18_0_0 <= 0
 inactive_no_flow_7_19_0_0: flow_7_19_0_0 - 1000 edge_7_19_0_0 <= 0
 inactive_no_flow_8_1_0_0: flow_8_1_0_0 - 1000 edge_8_1_0_0 <= 0
 inactive_no_flow_8_6_0_0: flow_8_6_0_0 - 1000 edge_8_6_0_0 <= 0
 inactive_no_flow_8_7_0_0: flow_8_7_0_0 - 1000 edge_8_7_0_0 <= 0
 inactive_no_flow_9_1_0_0: flow_9_1_0_0 - 1000 edge_9_1_0_0 <= 0
 inactive_no_flow_9_2_0_0: flow_9_2_0_0 - 1000 edge_9_2_0_0 <= 0
 inactive_no_flow_9_3_0_0: flow_9_3_0_0 - 1000 edge_9_3_0_0 <= 0
 inactive_no_flow_9_4_0_0: flow_9_4_0_0 - 1000 edge_9_4_0_0 <= 0
 inactive_no_flow_9_5_0_0: flow_9_5_0_0 - 1000 edge_9_5_0_0 <= 0
 inactive_no_flow_9_6_0_0: flow_9_6_0_0 - 1000 edge_9_6_0_0 <= 0
 inactive_no_flow_9_7_0_0: flow_9_7_0_0 - 1000 edge_9_7_0_0 <= 0
 inactive_no_flow_9_8_0_0: flow_9_8_0_0 - 1000 edge_9_8_0_0 <= 0
 inactive_no_flow_9_10_0_0: flow_9_10_0_0 - 1000 edge_9_10_0_0 <= 0
 inactive_no_flow_9_11_0_0: flow_9_11_0_0 - 1000 edge_9_11_0_0 <= 0
 inactive_no_flow_9_12_0_0: flow_9_12_0_0 - 1000 edge_9_12_0_0 <= 0
 inactive_no_flow_9_14_0_0: flow_9_14_0_0 - 1000 edge_9_14_0_0 <= 0
 inactive_no_flow_9_15_0_0: flow_9_15_0_0 - 1000 edge_9_15_0_0 <= 0
 inactive_no_flow_9_18_0_0: flow_9_18_0_0 - 1000 edge_9_18_0_0 <= 0
 inactive_no_flow_9_19_0_0: flow_9_19_0_0 - 1000 edge_9_19_0_0 <= 0
 inactive_no_flow_10_6_0_0: flow_10_6_0_0 - 1000 edge_10_6_0_0 <= 0
 inactive_no_flow_10_7_0_0: flow_10_7_0_0 - 1000 edge_10_7_0_0 <= 0
 inactive_no_flow_10_9_0_0: flow_10_9_0_0 - 1000 edge_10_9_0_0 <= 0
 inactive_no_flow_10_11_0_0: flow_10_11_0_0 - 1000 edge_10_11_0_0 <= 0
 inactive_no_flow_10_12_0_0: flow_10_12_0_0 - 1000 edge_10_12_0_0 <= 0
 inactive_no_flow_10_14_0_0: flow_10_14_0_0 - 1000 edge_10_14_0_0 <= 0
 inactive_no_flow_10_15_0_0: flow_10_15_0_0 - 1000 edge_10_15_0_0 <= 0
 inactive_no_flow_11_1_0_0: flow_11_1_0_0 - 1000 edge_11_1_0_0 <= 0
 inactive_no_flow_11_7_0_0: flow_11_7_0_0 - 1000 edge_11_7_0_0 <= 0
 inactive_no_flow_11_9_0_0: flow_11_9_0_0 - 1000 edge_11_9_0_0 <= 0
 inactive_no_flow_11_10_0_0: flow_11_10_0_0 - 1000 edge_11_10_0_0 <= 0
 inactive_no_flow_11_12_0_0: flow_11_12_0_0 - 1000 edge_11_12_0_0 <= 0
 inactive_no_flow_11_14_0_0: flow_11_14_0_0 - 1000 edge_11_14_0_0 <= 0
 inactive_no_flow_11_15_0_0: flow_11_15_0_0 - 1000 edge_11_15_0_0 <= 0
 inactive_no_flow_11_18_0_0: flow_11_18_0_0 - 1000 edge_11_18_0_0 <= 0
 inactive_no_flow_11_19_0_0: flow_11_19_0_0 - 1000 edge_11_19_0_0 <= 0
 inactive_no_flow_12_1_0_0: flow_12_1_0_0 - 1000 edge_12_1_0_0 <= 0
 inactive_no_flow_12_2_0_0: flow_12_2_0_0 - 1000 edge_12_2_0_0 <= 0
 inactive_no_flow_12_3_0_0: flow_12_3_0_0 - 1000 edge_12_3_0_0 <= 0
 inactive_no_flow_12_4_0_0: flow_12_4_0_0 - 1000 edge_12_4_0_0 <= 0
 inactive_no_flow_12_6_0_0: flow_12_6_0_0 - 1000 edge_12_6_0_0 <= 0
 inactive_no_flow_12_7_0_0: flow_12_7_0_0 - 1000 edge_12_7_0_0 <= 0
 inactive_no_flow_12_9_0_0: flow_12_9_0_0 - 1000 edge_12_9_0_0 <= 0
 inactive_no_flow_12_10_0_0: flow_12_10_0_0 - 1000 edge_12_10_0_0 <= 0
 inactive_no_flow_12_11_0_0: flow_12_11_0_0 - 1000 edge_12_11_0_0 <= 0
 inactive_no_flow_12_14_0_0: flow_12_14_0_0 - 1000 edge_12_14_0_0 <= 0
 inactive_no_flow_12_15_0_0: flow_12_15_0_0 - 1000 edge_12_15_0_0 <= 0
 inactive_no_flow_12_16_0_0: flow_12_16_0_0 - 1000 edge_12_16_0_0 <= 0
 inactive_no_flow_12_17_0_0: flow_12_17_0_0 - 1000 edge_12_17_0_0 <= 0
 inactive_no_flow_12_18_0_0: flow_12_18_0_0 - 1000 edge_12_18_0_0 <= 0
 inactive_no_flow_12_19_0_0: flow_12_19_0_0 - 1000 edge_12_19_0_0 <= 0
 inactive_no_flow_14_1_0_0: flow_14_1_0_0 - 1000 edge_14_1_0_0 <= 0
 inactive_no_flow_14_2_0_0: flow_14_2_0_0 - 1000 edge_14_2_0_0 <= 0
 inactive_no_flow_14_3_0_0: flow_14_3_0_0 - 1000 edge_14_3_0_0 <= 0
 inactive_no_flow_14_4_0_0: flow_14_4_0_0 - 1000 edge_14_4_0_0 <= 0
 inactive_no_flow_14_5_0_0: flow_14_5_0_0 - 1000 edge_14_5_0_0 <= 0
 inactive_no_flow_14_6_0_0: flow_14_6_0_0 - 1000 edge_14_6_0_0 <= 0
 inactive_no_flow_14_7_0_0: flow_14_7_0_0 - 1000 edge_14_7_0_0 <= 0
 inactive_no_flow_14_9_0_0: flow_14_9_0_0 - 1000 edge_14_9_0_0 <= 0
 inactive_no_flow_14_10_0_0: flow_14_10_0_0 - 1000 edge_14_10_0_0 <= 0
 inactive_no_flow_14_11_0_0: flow_14_11_0_0 - 1000 edge_14_11_0_0 <= 0
 inactive_no_flow_14_12_0_0: flow_14_12_0_0 - 1000 edge_14_12_0_0 <= 0
 inactive_no_flow_14_14_0_0: flow_14_14_0_0 - 1000 edge_14_14_0_0 <= 0
 inactive_no_flow_14_15_0_0: flow_14_15_0_0 - 1000 edge_14_15_0_0 <= 0
 inactive_no_flow_14_18_0_0: flow_14_18_0_0 - 1000 edge_14_18_0_0 <= 0
 inactive_no_flow_14_19_0_0: flow_14_19_0_0 - 1000 edge_14_19_0_0 <= 0
 inactive_no_flow_15_1_0_0: flow_15_1_0_0 - 1000 edge_15_1_0_0 <= 0
 inactive_no_flow_15_2_0_0: flow_15_2_0_0 - 1000 edge_15_2_0_0 <= 0
 inactive_no_flow_15_3_0_0: flow_15_3_0_0 - 1000 edge_15_3_0_0 <= 0
 inactive_no_flow_15_4_0_0: flow_15_4_0_0 - 1000 edge_15_4_0_0 <= 0
 inactive_no_flow_15_6_0_0: flow_15_6_0_0 - 1000 edge_15_6_0_0 <= 0
 inactive_no_flow_15_7_0_0: flow_15_7_0_0 - 1000 edge_15_7_0_0 <= 0
 inactive_no_flow_15_8_0_0: flow_15_8_0_0 - 1000 edge_15_8_0_0 <= 0
 inactive_no_flow_15_9_0_0: flow_15_9_0_0 - 1000 edge_15_9_0_0 <= 0
 inactive_no_flow_15_10_0_0: flow_15_10_0_0 - 1000 edge_15_10_0_0 <= 0
 inactive_no_flow_15_11_0_0: flow_15_11_0_0 - 1000 edge_15_11_0_0 <= 0
 inactive_no_flow_15_12_0_0: flow_15_12_0_0 - 1000 edge_15_12_0_0 <= 0
 inactive_no_flow_15_14_0_0: flow_15_14_0_0 - 1000 edge_15_14_0_0 <= 0
 inactive_no_flow_15_16_0_0: flow_15_16_0_0 - 1000 edge_15_16_0_0 <= 0
 inactive_no_flow_15_17_0_0: flow_15_17_0_0 - 1000 edge_15_17_0_0 <= 0
 inactive_no_flow_15_18_0_0: flow_15_18_0_0 - 1000 edge_15_18_0_0 <= 0
 inactive_no_flow_15_19_0_0: flow_15_19_0_0 - 1000 edge_15_19_0_0 <= 0
 inactive_no_flow_17_16_0_0: flow_17_16_0_0 - 1000 edge_17_16_0_0 <= 0
 inactive_no_flow_17_19_0_0: flow_17_19_0_0 - 1000 edge_17_19_0_0 <= 0
 inactive_no_flow_18_1_0_0: flow_18_1_0_0 - 1000 edge_18_1_0_0 <= 0
 inactive_no_flow_18_2_0_0: flow_18_2_0_0 - 1000 edge_18_2_0_0 <= 0
 inactive_no_flow_18_3_0_0: flow_18_3_0_0 - 1000 edge_18_3_0_0 <= 0
 inactive_no_flow_18_4_0_0: flow_18_4_0_0 - 1000 edge_18_4_0_0 <= 0
 inactive_no_flow_18_5_0_0: flow_18_5_0_0 - 1000 edge_18_5_0_0 <= 0
 inactive_no_flow_18_6_0_0: flow_18_6_0_0 - 1000 edge_18_6_0_0 <= 0
 inactive_no_flow_18_7_0_0: flow_18_7_0_0 - 1000 edge_18_7_0_0 <= 0
 inactive_no_flow_18_9_0_0: flow_18_9_0_0 - 1000 edge_18_9_0_0 <= 0
 inactive_no_flow_18_10_0_0: flow_18_10_0_0 - 1000 edge_18_10_0_0 <= 0
 inactive_no_flow_18_11_0_0: flow_18_11_0_0 - 1000 edge_18_11_0_0 <= 0
 inactive_no_flow_18_12_0_0: flow_18_12_0_0 - 1000 edge_18_12_0_0 <= 0
 inactive_no_flow_18_14_0_0: flow_18_14_0_0 - 1000 edge_18_14_0_0 <= 0
 inactive_no_flow_18_15_0_0: flow_18_15_0_0 - 1000 edge_18_15_0_0 <= 0
 inactive_no_flow_18_16_0_0: flow_18_16_0_0 - 1000 edge_18_16_0_0 <= 0
 inactive_no_flow_18_17_0_0: flow_18_17_0_0 - 1000 edge_18_17_0_0 <= 0
 inactive_no_flow_18_19_0_0: flow_18_19_0_0 - 1000 edge_18_19_0_0 <= 0
 inactive_no_flow_19_18_0_0: flow_19_18_0_0 - 1000 edge_19_18_0_0 <= 0
Bounds
Binaries
 edge_0_1_0_0 edge_0_2_0_0 edge_0_3_0_0 edge_0_4_0_0 edge_0_5_0_0
 edge_0_6_0_0 edge_0_7_0_0 edge_0_9_0_0 edge_0_11_0_0 edge_0_12_0_0
 edge_0_14_0_0 edge_0_15_0_0 edge_0_18_0_0 edge_1_2_0_0 edge_1_3_0_0
 edge_1_4_0_0 edge_1_5_0_0 edge_1_6_0_0 edge_1_7_0_0 edge_1_9_0_0
 edge_1_10_0_0 edge_1_11_0_0 edge_1_12_0_0 edge_1_19_0_0 edge_2_1_0_0
 edge_2_3_0_0 edge_2_4_0_0 edge_2_7_0_0 edge_2_9_0_0 edge_2_10_0_0
 edge_2_11_0_0 edge_2_12_0_0 edge_2_15_0_0 edge_2_18_0_0 edge_2_19_0_0
 edge_3_1_0_0 edge_3_2_0_0 edge_3_4_0_0 edge_3_5_0_0 edge_3_6_0_0
 edge_3_7_0_0 edge_3_9_0_0 edge_3_10_0_0 edge_3_11_0_0 edge_3_12_0_0
 edge_3_14_0_0 edge_3_15_0_0 edge_3_18_0_0 edge_3_19_0_0 edge_4_1_0_0
 edge_4_2_0_0 edge_4_3_0_0 edge_4_5_0_0 edge_4_6_0_0 edge_4_7_0_0
 edge_4_8_0_0 edge_4_9_0_0 edge_4_10_0_0 edge_4_11_0_0 edge_4_12_0_0
 edge_4_14_0_0 edge_4_15_0_0 edge_4_16_0_0 edge_4_17_0_0 edge_4_18_0_0
 edge_4_19_0_0 edge_5_1_0_0 edge_5_3_0_0 edge_5_4_0_0 edge_5_6_0_0
 edge_5_7_0_0 edge_5_9_0_0 edge_5_11_0_0 edge_5_12_0_0 edge_5_14_0_0
 edge_5_18_0_0 edge_5_19_0_0 edge_6_1_0_0 edge_6_3_0_0 edge_6_4_0_0
 edge_6_5_0_0 edge_6_7_0_0 edge_6_8_0_0 edge_6_9_0_0 edge_6_10_0_0
 edge_6_11_0_0 edge_6_12_0_0 edge_6_14_0_0 edge_6_15_0_0 edge_6_16_0_0
 edge_6_17_0_0 edge_6_18_0_0 edge_6_19_0_0 edge_7_1_0_0 edge_7_3_0_0
 edge_7_4_0_0 edge_7_6_0_0 edge_7_8_0_0 edge_7_9_0_0 edge_7_10_0_0
 edge_7_11_0_0 edge_7_12_0_0 edge_7_14_0_0 edge_7_15_0_0 edge_7_18_0_0
 edge_7_19_0_0 edge_8_1_0_0 edge_8_6_0_0 edge_8_7_0_0 edge_9_1_0_0
 edge_9_2_0_0 edge_9_3_0_0 edge_9_4_0_0 edge_9_5_0_0 edge_9_6_0_0
 edge_9_7_0_0 edge_9_8_0_0 edge_9_10_0_0 edge_9_11_0_0 edge_9_12_0_0
 edge_9_14_0_0 edge_9_15_0_0 edge_9_18_0_0 edge_9_19_0_0 edge_10_6_0_0
 edge_10_7_0_0 edge_10_9_0_0 edge_10_11_0_0 edge_10_12_0_0 edge_10_14_0_0
 edge_10_15_0_0 edge_11_1_0_0 edge_11_7_0_0 edge_11_9_0_0 edge_11_10_0_0
 edge_11_12_0_0 edge_11_14_0_0 edge_11_15_0_0 edge_11_18_0_0 edge_11_19_0_0
 edge_12_1_0_0 edge_12_2_0_0 edge_12_3_0_0 edge_12_4_0_0 edge_12_6_0_0
 edge_12_7_0_0 edge_12_9_0_0 edge_12_10_0_0 edge_12_11_0_0 edge_12_14_0_0
 edge_12_15_0_0 edge_12_16_0_0 edge_12_17_0_0 edge_12_18_0_0 edge_12_19_0_0
 edge_14_1_0_0 edge_14_2_0_0 edge_14_3_0_0 edge_14_4_0_0 edge_14_5_0_0
 edge_14_6_0_0 edge_14_7_0_0 edge_14_9_0_0 edge_14_10_0_0 edge_14_11_0_0
 edge_14_12_0_0 edge_14_14_0_0 edge_14_15_0_0 edge_14_18_0_0 edge_14_19_0_0
 edge_15_1_0_0 edge_15_2_0_0 edge_15_3_0_0 edge_15_4_0_0 edge_15_6_0_0
 edge_15_7_0_0 edge_15_8_0_0 edge_15_9_0_0 edge_15_10_0_0 edge_15_11_0_0
 edge_15_12_0_0 edge_15_14_0_0 edge_15_16_0_0 edge_15_17_0_0 edge_15_18_0_0
 edge_15_19_0_0 edge_17_16_0_0 edge_17_19_0_0 edge_18_1_0_0 edge_18_2_0_0
 edge_18_3_0_0 edge_18_4_0_0 edge_18_5_0_0 edge_18_6_0_0 edge_18_7_0_0
 edge_18_9_0_0 edge_18_10_0_0 edge_18_11_0_0 edge_18_12_0_0 edge_18_14_0_0
 edge_18_15_0_0 edge_18_16_0_0 edge_18_17_0_0 edge_18_19_0_0 edge_19_18_0_0
 pos_1_0 pos_2_0 pos_3_0 pos_4_0 pos_5_0 pos_6_0 pos_7_0 pos_8_0 pos_9_0
 pos_10_0 pos_11_0 pos_12_0 pos_14_0 pos_15_0 pos_16_0 pos_17_0 pos_18_0
 pos_19_0
End
